
n_res = 4;
rcap = [50, 52, 912, 903];
rtype = [1, 1, 2, 2];
n_tasks = 100;
modes =  [{1, 2, 3, 4, 5, 6}, {7, 8, 9, 10, 11, 12}, {13, 14, 15, 16, 17, 18}, {19, 20, 21, 22, 23, 24}, {25, 26, 27, 28, 29, 30}, {31, 32, 33, 34, 35, 36}, {37, 38, 39, 40, 41, 42}, {43, 44, 45, 46, 47, 48}, {49, 50, 51, 52, 53, 54}, {55, 56, 57, 58, 59, 60}, {61, 62, 63, 64, 65, 66}, {67, 68, 69, 70, 71, 72}, {73, 74, 75, 76, 77, 78}, {79, 80, 81, 82, 83, 84}, {85, 86, 87, 88, 89, 90}, {91, 92, 93, 94, 95, 96}, {97, 98, 99, 100, 101, 102}, {103, 104, 105, 106, 107, 108}, {109, 110, 111, 112, 113, 114}, {115, 116, 117, 118, 119, 120}, {121, 122, 123, 124, 125, 126}, {127, 128, 129, 130, 131, 132}, {133, 134, 135, 136, 137, 138}, {139, 140, 141, 142, 143, 144}, {145, 146, 147, 148, 149, 150}, {151, 152, 153, 154, 155, 156}, {157, 158, 159, 160, 161, 162}, {163, 164, 165, 166, 167, 168}, {169, 170, 171, 172, 173, 174}, {175, 176, 177, 178, 179, 180}, {181, 182, 183, 184, 185, 186}, {187, 188, 189, 190, 191, 192}, {193, 194, 195, 196, 197, 198}, {199, 200, 201, 202, 203, 204}, {205, 206, 207, 208, 209, 210}, {211, 212, 213, 214, 215, 216}, {217, 218, 219, 220, 221, 222}, {223, 224, 225, 226, 227, 228}, {229, 230, 231, 232, 233, 234}, {235, 236, 237, 238, 239, 240}, {241, 242, 243, 244, 245, 246}, {247, 248, 249, 250, 251, 252}, {253, 254, 255, 256, 257, 258}, {259, 260, 261, 262, 263, 264}, {265, 266, 267, 268, 269, 270}, {271, 272, 273, 274, 275, 276}, {277, 278, 279, 280, 281, 282}, {283, 284, 285, 286, 287, 288}, {289, 290, 291, 292, 293, 294}, {295, 296, 297, 298, 299, 300}, {301, 302, 303, 304, 305, 306}, {307, 308, 309, 310, 311, 312}, {313, 314, 315, 316, 317, 318}, {319, 320, 321, 322, 323, 324}, {325, 326, 327, 328, 329, 330}, {331, 332, 333, 334, 335, 336}, {337, 338, 339, 340, 341, 342}, {343, 344, 345, 346, 347, 348}, {349, 350, 351, 352, 353, 354}, {355, 356, 357, 358, 359, 360}, {361, 362, 363, 364, 365, 366}, {367, 368, 369, 370, 371, 372}, {373, 374, 375, 376, 377, 378}, {379, 380, 381, 382, 383, 384}, {385, 386, 387, 388, 389, 390}, {391, 392, 393, 394, 395, 396}, {397, 398, 399, 400, 401, 402}, {403, 404, 405, 406, 407, 408}, {409, 410, 411, 412, 413, 414}, {415, 416, 417, 418, 419, 420}, {421, 422, 423, 424, 425, 426}, {427, 428, 429, 430, 431, 432}, {433, 434, 435, 436, 437, 438}, {439, 440, 441, 442, 443, 444}, {445, 446, 447, 448, 449, 450}, {451, 452, 453, 454, 455, 456}, {457, 458, 459, 460, 461, 462}, {463, 464, 465, 466, 467, 468}, {469, 470, 471, 472, 473, 474}, {475, 476, 477, 478, 479, 480}, {481, 482, 483, 484, 485, 486}, {487, 488, 489, 490, 491, 492}, {493, 494, 495, 496, 497, 498}, {499, 500, 501, 502, 503, 504}, {505, 506, 507, 508, 509, 510}, {511, 512, 513, 514, 515, 516}, {517, 518, 519, 520, 521, 522}, {523, 524, 525, 526, 527, 528}, {529, 530, 531, 532, 533, 534}, {535, 536, 537, 538, 539, 540}, {541, 542, 543, 544, 545, 546}, {547, 548, 549, 550, 551, 552}, {553, 554, 555, 556, 557, 558}, {559, 560, 561, 562, 563, 564}, {565, 566, 567, 568, 569, 570}, {571, 572, 573, 574, 575, 576}, {577, 578, 579, 580, 581, 582}, {583, 584, 585, 586, 587, 588}, {589, 590, 591, 592, 593, 594}, {595, 596, 597, 598, 599, 600}];
succ =  [{20, 17, 12, 9, 8}, {34, 31, 30, 28, 27, 25, 24, 23, 21, 20, 18, 17}, {31, 30, 29, 28, 25, 24, 23, 21, 20, 17, 16}, {34, 27, 26, 25, 24, 23, 18, 15}, {28, 27, 24, 23, 20, 17, 13}, {44, 34, 31, 30, 27, 26, 25, 24, 23, 18}, {44, 34, 31, 27, 26, 25, 24, 23, 21, 18}, {44, 37, 34, 30, 29, 28, 27, 26, 25, 22, 21}, {44, 31, 30, 29, 28, 25, 24, 23, 16}, {35, 34, 31, 30, 25, 24, 21, 20}, {44, 34, 31, 30, 28, 25, 23, 18}, {44, 35, 33, 32, 31, 30, 29, 28, 25, 24}, {44, 37, 35, 30, 29, 26, 25, 21}, {44, 35, 33, 31, 30, 28, 26, 25}, {44, 35, 31, 30, 29, 28, 21}, {41, 39, 36, 35, 34, 33, 32}, {45, 39, 36, 35, 33, 26}, {46, 42, 41, 39, 36, 32, 29}, {41, 39, 32, 29, 28}, {47, 45, 44, 43, 42, 41, 37, 36}, {49, 45, 43, 41, 39, 33, 32}, {46, 45, 39, 36, 35}, {45, 41, 38, 35, 33}, {47, 46, 45, 41, 37, 36}, {47, 46, 41, 36}, {49, 46, 41, 32}, {49, 47, 45, 39, 38}, {51, 47, 42, 36}, {49, 45, 43, 38}, {49, 43, 39, 38}, {63, 49, 46, 45, 43, 40}, {51, 47, 38}, {63, 57, 56, 51, 50, 48, 46, 40}, {63, 58, 52, 51, 49, 47, 45, 42}, {63, 48, 47, 43, 42}, {49, 38}, {63, 57, 56, 51, 48, 40}, {63, 56, 50, 48, 40}, {65, 63, 60, 58, 55, 54, 53, 52, 51}, {65, 60, 59, 58, 55, 54, 53, 52}, {65, 58, 57, 56, 53, 52, 51}, {65, 61, 60, 59, 57, 56, 54, 50}, {58, 56, 55, 53, 51, 50}, {69, 66, 64, 63, 62, 61, 59, 58, 57, 56}, {73, 71, 64, 62, 61, 59, 57, 55}, {70, 69, 67, 62, 60, 59, 53}, {71, 69, 61, 59, 57, 54}, {70, 69, 65, 58, 53}, {73, 71, 66, 64, 62, 57}, {75, 73, 71, 70, 69, 68, 67, 66, 62}, {73, 71, 69, 68, 67, 66, 59}, {73, 70, 68, 64, 62}, {79, 73, 66, 64, 61}, {73, 68, 67, 66, 64}, {70, 69, 68, 67, 66}, {82, 81, 75, 73, 72, 70, 67}, {81, 76, 70, 68, 67}, {85, 82, 79, 78, 76, 75, 74, 72, 71}, {87, 85, 84, 82, 79, 76, 75, 74, 72}, {87, 85, 84, 82, 81, 79, 78, 77, 76}, {78, 76, 75, 74, 68}, {87, 85, 84, 81, 79, 78, 74, 72}, {94, 87, 85, 84, 78, 77, 76, 75}, {87, 85, 84, 80, 76, 75, 74}, {87, 85, 84, 82, 78, 77, 76}, {89, 86, 85, 84, 82, 81, 77, 76}, {91, 89, 87, 85, 84, 79, 77}, {89, 86, 85, 84, 82, 77}, {91, 82, 79, 78}, {85, 84, 83, 80, 78}, {94, 89, 86, 84, 83, 80}, {94, 92, 89, 86, 77}, {80, 78}, {100, 94, 93, 92, 88, 83}, {100, 92, 89, 86, 83}, {93, 92, 91, 83}, {88, 83, 80}, {93, 92, 89, 86}, {94, 86, 83}, {100, 99, 98, 93, 90}, {99, 98, 93, 92, 90}, {98, 92, 88}, {99, 98, 95, 90}, {99, 98, 97, 92}, {98, 92, 90}, {98, 88}, {100, 97, 92}, {95, 90}, {98, 90}, {97, 96}, {100, 97}, {95}, {95}, {95}, {96}, {}, {}, {}, {}, {}];
n_opt = 600;
dur = [1, 8, 10, 13, 14, 17, 2, 4, 13, 14, 15, 18, 4, 6, 9, 10, 18, 20, 6, 10, 16, 17, 18, 20, 1, 2, 5, 9, 12, 16, 1, 3, 8, 9, 12, 15, 3, 6, 14, 17, 18, 19, 1, 4, 6, 8, 9, 18, 1, 2, 11, 15, 16, 17, 5, 8, 12, 13, 17, 18, 12, 13, 14, 15, 16, 18, 2, 7, 8, 13, 14, 15, 5, 9, 10, 17, 18, 19, 3, 6, 13, 14, 18, 19, 8, 13, 14, 15, 16, 18, 2, 8, 11, 12, 14, 15, 2, 3, 6, 7, 8, 19, 2, 3, 4, 8, 9, 16, 1, 5, 8, 10, 12, 18, 4, 5, 11, 17, 18, 19, 3, 4, 5, 6, 14, 17, 6, 10, 12, 14, 16, 17, 3, 5, 6, 14, 16, 18, 2, 3, 6, 13, 14, 15, 2, 4, 5, 7, 13, 17, 1, 6, 9, 17, 19, 20, 2, 9, 11, 12, 13, 18, 2, 5, 12, 13, 17, 18, 3, 4, 8, 9, 18, 20, 2, 3, 13, 14, 17, 18, 3, 4, 5, 15, 16, 19, 5, 6, 7, 18, 19, 20, 3, 5, 9, 14, 15, 16, 5, 6, 13, 14, 16, 17, 1, 5, 8, 11, 15, 16, 4, 7, 8, 10, 13, 14, 3, 8, 9, 10, 11, 14, 6, 8, 9, 10, 11, 12, 1, 3, 4, 7, 13, 17, 3, 4, 10, 12, 16, 17, 6, 7, 8, 11, 15, 19, 5, 9, 10, 11, 12, 13, 11, 13, 14, 15, 16, 17, 4, 6, 11, 16, 18, 19, 1, 7, 8, 10, 12, 13, 1, 3, 4, 6, 15, 18, 1, 2, 5, 10, 17, 20, 8, 12, 13, 14, 15, 16, 2, 3, 8, 13, 14, 19, 2, 7, 13, 16, 17, 18, 7, 8, 10, 11, 18, 19, 1, 3, 5, 10, 11, 19, 2, 6, 11, 12, 14, 19, 7, 8, 11, 13, 18, 19, 4, 5, 6, 7, 11, 14, 3, 5, 8, 14, 16, 17, 2, 3, 6, 8, 10, 18, 6, 9, 11, 13, 15, 19, 4, 5, 6, 14, 17, 18, 1, 10, 13, 14, 16, 20, 3, 10, 11, 13, 15, 16, 1, 2, 13, 14, 15, 16, 4, 8, 9, 10, 14, 19, 5, 14, 16, 18, 19, 20, 4, 5, 6, 9, 15, 20, 6, 11, 12, 13, 14, 18, 2, 3, 6, 10, 16, 17, 2, 5, 6, 9, 13, 15, 3, 7, 9, 10, 14, 20, 1, 2, 5, 9, 10, 16, 2, 8, 11, 13, 17, 20, 2, 4, 7, 8, 9, 10, 3, 4, 5, 10, 18, 19, 3, 4, 11, 17, 18, 19, 3, 5, 12, 13, 19, 20, 1, 9, 10, 11, 12, 13, 3, 5, 7, 15, 16, 19, 5, 6, 7, 10, 13, 14, 8, 9, 11, 13, 15, 19, 1, 3, 12, 16, 19, 20, 7, 9, 10, 16, 17, 18, 1, 4, 5, 15, 16, 17, 2, 8, 13, 17, 19, 20, 2, 7, 10, 17, 18, 19, 9, 12, 14, 16, 17, 20, 1, 12, 13, 15, 19, 20, 1, 3, 4, 13, 14, 17, 1, 7, 12, 13, 17, 18, 4, 5, 6, 7, 12, 16, 2, 4, 14, 15, 16, 17, 1, 3, 4, 9, 14, 15, 3, 6, 7, 11, 17, 19, 2, 5, 6, 18, 19, 20, 7, 8, 9, 10, 12, 16, 7, 10, 11, 13, 17, 19, 7, 8, 12, 13, 19, 20, 7, 8, 9, 10, 14, 15, 2, 3, 5, 6, 17, 18, 7, 13, 14, 15, 17, 18, 2, 7, 8, 9, 12, 18];
rreq = [|18, 15, 14, 10, 9, 6, 7, 7, 5, 5, 3, 3, 17, 17, 16, 15, 14, 13, 10, 10, 10, 10, 10, 10, 12, 11, 11, 11, 11, 11, 7, 7, 5, 5, 4, 3, 14, 11, 9, 8, 6, 2, 16, 15, 15, 15, 14, 14, 13, 10, 10, 7, 7, 6, 7, 6, 6, 5, 3, 2, 7, 5, 5, 4, 3, 2, 11, 10, 9, 8, 8, 7, 12, 12, 12, 12, 12, 12, 9, 9, 9, 9, 9, 9, 6, 6, 5, 5, 3, 3, 17, 15, 14, 14, 13, 12, 5, 5, 5, 4, 4, 3, 12, 12, 8, 7, 4, 3, 8, 6, 5, 5, 3, 3, 13, 13, 13, 13, 13, 13, 16, 14, 11, 11, 6, 5, 15, 15, 14, 13, 13, 12, 3, 3, 3, 3, 3, 3, 15, 13, 11, 9, 7, 5, 5, 5, 4, 4, 2, 2, 12, 11, 11, 10, 10, 10, 20, 19, 18, 18, 17, 17, 20, 16, 13, 11, 9, 9, 20, 15, 14, 12, 11, 8, 15, 15, 15, 15, 15, 15, 20, 16, 12, 11, 6, 5, 19, 16, 14, 13, 10, 8, 9, 9, 7, 6, 6, 4, 19, 17, 14, 13, 10, 7, 15, 12, 11, 8, 5, 5, 15, 14, 13, 11, 11, 10, 18, 16, 16, 15, 14, 13, 13, 13, 12, 11, 9, 9, 14, 13, 13, 13, 12, 12, 18, 17, 16, 16, 15, 14, 13, 11, 11, 11, 10, 9, 6, 5, 4, 4, 2, 2, 14, 13, 13, 12, 10, 8, 13, 11, 10, 7, 6, 5, 14, 14, 9, 9, 6, 2, 12, 10, 10, 6, 6, 4, 9, 8, 6, 4, 3, 2, 14, 11, 10, 9, 9, 8, 6, 6, 6, 5, 4, 4, 18, 18, 18, 18, 17, 17, 19, 14, 14, 12, 7, 7, 14, 11, 9, 7, 5, 2, 2, 1, 1, 1, 1, 1, 16, 16, 15, 14, 13, 13, 20, 17, 17, 15, 12, 12, 15, 14, 13, 13, 12, 11, 10, 10, 9, 6, 6, 4, 11, 8, 8, 6, 6, 5, 12, 11, 11, 10, 9, 9, 18, 16, 12, 12, 9, 8, 19, 17, 17, 17, 16, 15, 17, 17, 16, 15, 15, 14, 6, 6, 5, 4, 3, 2, 17, 17, 16, 14, 13, 11, 6, 5, 4, 4, 3, 3, 9, 8, 8, 7, 6, 6, 8, 8, 8, 8, 8, 8, 13, 12, 12, 10, 9, 8, 8, 8, 8, 7, 7, 7, 18, 17, 12, 11, 8, 5, 18, 16, 13, 11, 11, 8, 16, 15, 15, 15, 14, 14, 7, 7, 7, 6, 6, 5, 11, 10, 8, 8, 6, 6, 15, 13, 11, 10, 9, 7, 16, 14, 13, 12, 8, 8, 7, 5, 5, 4, 3, 2, 15, 13, 10, 10, 9, 6, 5, 4, 4, 2, 1, 1, 16, 12, 9, 6, 3, 3, 4, 4, 4, 4, 4, 4, 10, 8, 7, 7, 6, 5, 5, 5, 4, 4, 4, 3, 12, 12, 9, 8, 4, 4, 11, 10, 10, 8, 8, 6, 13, 12, 9, 6, 5, 3, 11, 11, 10, 8, 8, 6, 10, 8, 8, 8, 6, 6, 17, 17, 16, 15, 15, 14, 15, 13, 13, 12, 11, 10, 13, 12, 12, 12, 11, 11, 7, 5, 5, 3, 3, 2, 16, 15, 15, 13, 12, 12, 11, 10, 10, 10, 9, 9, 10, 9, 9, 9, 9, 9, 7, 5, 5, 4, 4, 3, 18, 18, 16, 14, 14, 12, 15, 13, 12, 9, 9, 8, 10, 10, 10, 10, 10, 10, 19, 18, 15, 15, 13, 10
 |6, 4, 4, 3, 2, 2, 15, 14, 13, 12, 12, 11, 12, 11, 11, 10, 10, 10, 15, 11, 9, 5, 4, 3, 18, 16, 13, 11, 7, 6, 13, 13, 13, 13, 12, 12, 9, 8, 8, 7, 5, 5, 12, 10, 8, 7, 4, 3, 14, 11, 10, 10, 7, 7, 14, 13, 10, 9, 7, 6, 8, 8, 8, 8, 8, 8, 15, 13, 12, 9, 9, 7, 4, 4, 3, 3, 3, 2, 16, 15, 15, 15, 15, 15, 10, 7, 7, 4, 4, 1, 7, 6, 6, 6, 5, 5, 15, 15, 14, 14, 13, 12, 1, 1, 1, 1, 1, 1, 6, 5, 5, 5, 5, 5, 4, 3, 3, 3, 2, 1, 13, 13, 10, 9, 6, 5, 16, 14, 11, 9, 7, 6, 13, 11, 7, 7, 4, 2, 13, 12, 12, 11, 10, 10, 19, 18, 17, 16, 16, 15, 16, 15, 15, 13, 12, 11, 13, 10, 8, 6, 5, 4, 7, 5, 5, 5, 3, 3, 19, 18, 18, 18, 18, 18, 19, 17, 16, 12, 12, 9, 13, 13, 11, 8, 5, 5, 15, 13, 12, 12, 10, 9, 7, 6, 6, 6, 6, 6, 15, 14, 14, 14, 14, 14, 16, 15, 11, 10, 8, 6, 13, 13, 11, 10, 10, 9, 11, 11, 9, 8, 7, 5, 11, 11, 9, 8, 5, 5, 6, 6, 6, 6, 6, 6, 12, 12, 11, 10, 9, 9, 14, 12, 12, 10, 10, 8, 20, 17, 15, 10, 7, 7, 17, 16, 15, 14, 14, 12, 15, 15, 15, 14, 13, 13, 6, 5, 4, 4, 2, 2, 14, 13, 13, 13, 12, 12, 16, 16, 14, 13, 12, 12, 19, 17, 15, 15, 13, 11, 14, 14, 14, 13, 13, 13, 11, 9, 6, 6, 5, 2, 8, 7, 7, 5, 4, 1, 12, 11, 10, 10, 9, 8, 17, 16, 15, 13, 11, 9, 15, 13, 12, 10, 10, 7, 15, 13, 12, 11, 7, 7, 18, 15, 15, 12, 12, 9, 7, 6, 6, 6, 6, 6, 19, 18, 18, 18, 18, 18, 19, 17, 17, 15, 14, 13, 11, 9, 7, 7, 4, 3, 9, 7, 7, 7, 5, 5, 12, 10, 8, 8, 7, 5, 3, 3, 3, 3, 3, 3, 19, 18, 18, 17, 17, 17, 14, 14, 11, 9, 8, 6, 15, 13, 12, 11, 10, 10, 19, 18, 18, 16, 15, 15, 14, 11, 9, 8, 6, 4, 7, 6, 6, 5, 5, 5, 13, 13, 9, 7, 7, 5, 16, 13, 11, 10, 7, 3, 12, 12, 11, 8, 8, 6, 17, 17, 15, 13, 13, 10, 8, 6, 6, 3, 2, 1, 12, 10, 10, 9, 6, 4, 9, 9, 8, 8, 8, 7, 17, 17, 17, 17, 16, 16, 19, 19, 19, 18, 17, 17, 9, 9, 9, 9, 9, 9, 14, 12, 12, 10, 9, 9, 14, 13, 12, 12, 11, 11, 19, 14, 13, 12, 8, 5, 18, 16, 16, 15, 14, 14, 15, 14, 13, 12, 10, 10, 2, 1, 1, 1, 1, 1, 18, 18, 15, 13, 12, 10, 6, 6, 5, 4, 2, 2, 15, 11, 9, 7, 5, 1, 19, 13, 11, 10, 6, 3, 16, 15, 15, 15, 14, 13, 13, 10, 10, 9, 7, 5, 16, 14, 13, 10, 7, 5, 16, 15, 14, 14, 12, 12, 14, 12, 11, 9, 7, 6, 18, 18, 18, 18, 18, 18, 14, 12, 9, 8, 5, 2, 8, 8, 7, 6, 5, 5, 20, 19, 18, 17, 16, 15, 13, 13, 13, 13, 13, 13, 8, 7, 7, 6, 6, 5
 |15, 13, 13, 12, 11, 11, 13, 12, 12, 12, 11, 11, 17, 14, 13, 11, 10, 9, 5, 5, 5, 4, 3, 3, 11, 11, 7, 7, 4, 2, 20, 15, 14, 12, 11, 7, 17, 17, 16, 14, 13, 13, 14, 13, 12, 11, 10, 9, 9, 7, 5, 4, 3, 2, 15, 14, 13, 12, 11, 11, 11, 11, 10, 7, 6, 5, 12, 11, 11, 11, 11, 11, 17, 17, 16, 15, 13, 12, 16, 16, 14, 10, 10, 6, 9, 8, 6, 6, 5, 3, 19, 19, 19, 19, 18, 18, 11, 10, 10, 9, 9, 8, 7, 6, 6, 6, 6, 6, 13, 13, 13, 12, 11, 11, 14, 12, 10, 8, 7, 7, 10, 9, 8, 6, 6, 5, 12, 12, 12, 12, 12, 12, 13, 13, 13, 12, 11, 11, 12, 9, 8, 8, 7, 5, 15, 14, 13, 12, 12, 11, 17, 13, 12, 11, 8, 7, 6, 6, 5, 5, 5, 4, 15, 13, 13, 11, 10, 10, 12, 9, 9, 7, 6, 5, 3, 2, 2, 1, 1, 1, 16, 14, 14, 11, 8, 7, 13, 11, 11, 9, 7, 6, 5, 5, 5, 5, 5, 5, 14, 11, 9, 7, 5, 3, 14, 13, 13, 13, 12, 12, 12, 10, 10, 7, 7, 4, 19, 15, 13, 12, 9, 8, 14, 14, 14, 14, 13, 13, 14, 13, 13, 12, 11, 11, 19, 19, 18, 16, 16, 15, 11, 10, 8, 7, 7, 6, 16, 15, 13, 13, 11, 9, 10, 8, 6, 4, 2, 1, 15, 15, 15, 14, 14, 14, 13, 12, 11, 10, 9, 9, 5, 5, 4, 3, 2, 1, 4, 3, 2, 2, 1, 1, 14, 14, 11, 8, 5, 5, 4, 3, 3, 3, 3, 3, 18, 17, 15, 14, 13, 13, 6, 6, 6, 6, 6, 6, 15, 10, 8, 6, 6, 3, 6, 5, 5, 5, 5, 5, 16, 15, 15, 14, 14, 14, 9, 8, 8, 7, 6, 6, 19, 18, 18, 18, 18, 18, 17, 14, 13, 11, 9, 8, 17, 15, 11, 10, 8, 6, 11, 9, 6, 6, 4, 2, 16, 14, 11, 7, 4, 2, 18, 17, 17, 16, 15, 15, 11, 10, 10, 9, 8, 8, 16, 14, 12, 12, 9, 8, 15, 12, 10, 7, 4, 2, 14, 13, 11, 9, 8, 6, 11, 11, 11, 11, 11, 11, 15, 14, 14, 14, 14, 14, 15, 15, 13, 12, 12, 11, 12, 12, 9, 8, 5, 2, 12, 12, 10, 9, 9, 7, 8, 8, 8, 8, 8, 8, 13, 12, 10, 7, 6, 5, 16, 13, 12, 11, 8, 6, 19, 17, 16, 15, 14, 14, 18, 17, 16, 14, 12, 10, 12, 10, 8, 8, 5, 4, 18, 17, 17, 17, 17, 17, 19, 19, 18, 18, 18, 17, 15, 13, 13, 12, 11, 10, 12, 11, 11, 11, 10, 10, 7, 7, 7, 7, 7, 7, 14, 14, 13, 11, 10, 9, 10, 9, 9, 6, 6, 5, 16, 15, 14, 11, 11, 10, 12, 11, 10, 7, 7, 5, 18, 18, 18, 18, 18, 18, 8, 7, 7, 6, 6, 6, 18, 16, 14, 11, 9, 5, 9, 9, 9, 9, 9, 9, 11, 10, 10, 9, 8, 6, 17, 16, 15, 15, 13, 13, 20, 16, 14, 12, 9, 7, 12, 9, 7, 5, 4, 2, 5, 3, 3, 2, 2, 1, 11, 9, 7, 6, 5, 3, 4, 4, 4, 4, 4, 4, 15, 13, 11, 9, 4, 3, 19, 16, 14, 14, 12, 10, 13, 13, 12, 12, 11, 11, 17, 17, 15, 12, 12, 10
 |14, 12, 11, 9, 8, 6, 14, 13, 11, 10, 7, 6, 8, 8, 7, 6, 6, 5, 11, 8, 8, 6, 6, 5, 10, 9, 7, 6, 3, 2, 12, 10, 8, 6, 4, 3, 10, 9, 8, 7, 6, 6, 12, 12, 12, 12, 11, 11, 12, 12, 12, 12, 11, 11, 12, 12, 11, 9, 8, 7, 20, 18, 17, 15, 14, 14, 17, 13, 10, 8, 5, 3, 10, 9, 9, 9, 8, 8, 9, 7, 7, 6, 5, 5, 11, 10, 10, 9, 8, 6, 10, 9, 9, 8, 9, 9, 17, 13, 11, 10, 7, 2, 19, 16, 15, 11, 10, 8, 9, 9, 6, 6, 4, 1, 18, 14, 13, 12, 9, 8, 16, 14, 14, 12, 8, 7, 12, 11, 11, 11, 10, 10, 10, 10, 10, 10, 10, 10, 9, 9, 9, 9, 8, 8, 10, 7, 7, 4, 4, 1, 10, 8, 8, 8, 6, 6, 11, 11, 11, 11, 11, 11, 6, 5, 5, 5, 4, 3, 16, 15, 15, 14, 14, 14, 18, 17, 15, 14, 13, 12, 19, 17, 13, 13, 9, 8, 14, 12, 11, 8, 7, 4, 12, 11, 10, 8, 7, 7, 15, 15, 15, 15, 15, 15, 14, 13, 12, 11, 11, 10, 12, 11, 11, 11, 10, 11, 14, 13, 10, 8, 6, 5, 16, 15, 15, 14, 14, 13, 15, 15, 14, 12, 11, 10, 11, 10, 9, 8, 7, 7, 12, 9, 9, 8, 6, 5, 15, 15, 9, 6, 3, 3, 10, 8, 7, 5, 5, 2, 7, 6, 5, 5, 4, 2, 11, 11, 10, 8, 7, 6, 17, 17, 13, 12, 10, 9, 1, 1, 1, 1, 1, 1, 10, 10, 8, 8, 6, 4, 12, 11, 9, 9, 7, 6, 18, 17, 16, 14, 12, 12, 8, 7, 6, 7, 6, 6, 10, 9, 6, 4, 3, 2, 17, 16, 16, 15, 13, 13, 7, 6, 4, 3, 3, 2, 16, 13, 12, 7, 5, 1, 16, 13, 13, 11, 11, 10, 12, 12, 12, 12, 12, 12, 19, 19, 17, 17, 15, 15, 3, 3, 3, 3, 3, 3, 13, 11, 10, 10, 8, 6, 12, 11, 9, 7, 5, 3, 17, 16, 13, 11, 10, 8, 18, 17, 17, 16, 16, 15, 18, 17, 17, 16, 16, 16, 13, 13, 12, 12, 12, 11, 17, 17, 17, 16, 16, 15, 17, 17, 16, 16, 17, 16, 16, 14, 12, 9, 6, 4, 18, 16, 16, 15, 14, 14, 17, 12, 11, 9, 7, 3, 20, 20, 20, 20, 20, 20, 16, 15, 15, 15, 14, 14, 16, 15, 15, 14, 14, 14, 3, 3, 3, 2, 2, 1, 10, 9, 8, 8, 6, 6, 17, 16, 14, 14, 10, 10, 18, 17, 14, 11, 10, 6, 16, 15, 15, 13, 12, 12, 7, 6, 5, 6, 6, 6, 17, 16, 16, 16, 17, 16, 17, 15, 14, 11, 8, 7, 11, 9, 9, 8, 6, 6, 11, 10, 10, 10, 8, 8, 10, 10, 10, 10, 10, 10, 14, 14, 13, 12, 10, 10, 13, 11, 8, 6, 4, 2, 3, 3, 3, 2, 2, 2, 13, 12, 11, 9, 9, 8, 17, 17, 14, 12, 8, 5, 18, 15, 14, 14, 13, 11, 7, 7, 5, 5, 3, 3, 13, 11, 9, 7, 6, 6, 11, 9, 9, 7, 6, 6, 8, 6, 6, 5, 5, 4, 11, 11, 9, 9, 8, 7, 12, 11, 11, 11, 11, 11, 9, 9, 8, 7, 6, 5, 16, 15, 13, 13, 11, 11, 14, 13, 13, 12, 11, 10, 19, 17, 14, 11, 9, 9|];